============================[ Problem Statistics ]=============================|                                                                             ||  Number of variables:          4242                                         ||  Number of clauses:           10361                                         ||  Parse time:                   0.74 s                                       ||                                                                             |============================[ Search Statistics ]==============================| Conflicts |          ORIGINAL         |          LEARNT          | Progress ||           |    Vars  Clauses Literals |    Limit  Clauses Lit/Cl |          |===============================================================================|       100 |    1591     6566  1193907 |     2407      100     53 | 62.501 % ||       250 |    1591     6566  1193907 |     2648      250     75 | 62.495 % |===============================================================================restarts              : 4conflicts             : 405            (359 /sec)decisions             : 766            (0.00 % random) (680 /sec)propagations          : 13654          (12115 /sec)conflict literals     : 33673          (94.54 % deleted)CPU time              : 1.127 sSATISFIABLE